sat
(:max-memory         18.15
 :memory             18.06
 :nlsat-propagations 11
 :nlsat-stages       4
 :num-allocs         34349
 :rlimit-count       6258
 :time               0.00
 :total-time         0.02)
